\ Set Covering Problem - 50 rows x 200 columns
\ Select minimum cost columns to cover all rows
\ x[j]=1 if column j is selected
Minimize
  obj: x_1 + x_2 + x_3 + x_4 + x_5 + x_6 + x_7 + x_8 + x_9 + x_10 + x_11 + x_12 + x_13 + x_14 + x_15 + x_16 + x_17 + x_18 + x_19 + x_20 + x_21 + x_22 + x_23 + x_24 + x_25 + x_26 + x_27 + x_28 + x_29 + x_30 + x_31 + x_32 + x_33 + x_34 + x_35 + x_36 + x_37 + x_38 + x_39 + x_40 + x_41 + x_42 + x_43 + x_44 + x_45 + x_46 + x_47 + x_48 + x_49 + x_50 + x_51 + x_52 + x_53 + x_54 + x_55 + x_56 + x_57 + x_58 + x_59 + x_60 + x_61 + x_62 + x_63 + x_64 + x_65 + x_66 + x_67 + x_68 + x_69 + x_70 + x_71 + x_72 + x_73 + x_74 + x_75 + x_76 + x_77 + x_78 + x_79 + x_80 + x_81 + x_82 + x_83 + x_84 + x_85 + x_86 + x_87 + x_88 + x_89 + x_90 + x_91 + x_92 + x_93 + x_94 + x_95 + x_96 + x_97 + x_98 + x_99 + x_100 + x_101 + x_102 + x_103 + x_104 + x_105 + x_106 + x_107 + x_108 + x_109 + x_110 + x_111 + x_112 + x_113 + x_114 + x_115 + x_116 + x_117 + x_118 + x_119 + x_120 + x_121 + x_122 + x_123 + x_124 + x_125 + x_126 + x_127 + x_128 + x_129 + x_130 + x_131 + x_132 + x_133 + x_134 + x_135 + x_136 + x_137 + x_138 + x_139 + x_140 + x_141 + x_142 + x_143 + x_144 + x_145 + x_146 + x_147 + x_148 + x_149 + x_150 + x_151 + x_152 + x_153 + x_154 + x_155 + x_156 + x_157 + x_158 + x_159 + x_160 + x_161 + x_162 + x_163 + x_164 + x_165 + x_166 + x_167 + x_168 + x_169 + x_170 + x_171 + x_172 + x_173 + x_174 + x_175 + x_176 + x_177 + x_178 + x_179 + x_180 + x_181 + x_182 + x_183 + x_184 + x_185 + x_186 + x_187 + x_188 + x_189 + x_190 + x_191 + x_192 + x_193 + x_194 + x_195 + x_196 + x_197 + x_198 + x_199 + x_200
Subject To
  cover_1: x_1 + x_6 + x_18 + x_28 + x_30 + x_33 + x_35 + x_49 + x_61 + x_72 + x_90 + x_96 + x_108 + x_116 + x_130 + x_134 + x_139 + x_144 + x_155 + x_159 + x_167 + x_178 + x_180 + x_200 >= 1
  cover_2: x_1 + x_6 + x_39 + x_43 + x_46 + x_73 + x_75 + x_77 + x_85 + x_94 + x_124 + x_133 + x_151 + x_158 + x_168 + x_181 + x_186 + x_199 >= 1
  cover_3: x_8 + x_33 + x_37 + x_46 + x_49 + x_59 + x_79 + x_89 + x_107 + x_117 + x_123 + x_126 + x_129 + x_142 + x_143 + x_147 + x_151 + x_162 + x_163 + x_170 + x_173 >= 1
  cover_4: x_1 + x_7 + x_11 + x_18 + x_20 + x_21 + x_22 + x_33 + x_62 + x_70 + x_76 + x_107 + x_109 + x_114 + x_120 + x_131 + x_151 + x_159 + x_174 + x_176 + x_181 + x_186 + x_194 + x_196 >= 1
  cover_5: x_2 + x_5 + x_8 + x_14 + x_22 + x_28 + x_29 + x_35 + x_44 + x_50 + x_60 + x_66 + x_69 + x_90 + x_110 + x_116 + x_118 + x_120 + x_139 + x_145 + x_147 + x_156 + x_166 + x_169 + x_177 + x_187 + x_192 + x_200 >= 1
  cover_6: x_2 + x_16 + x_22 + x_25 + x_33 + x_56 + x_57 + x_67 + x_75 + x_77 + x_93 + x_96 + x_98 + x_112 + x_115 + x_123 + x_124 + x_127 + x_129 + x_153 + x_163 + x_166 + x_175 + x_187 + x_192 + x_193 >= 1
  cover_7: x_10 + x_11 + x_13 + x_14 + x_28 + x_31 + x_41 + x_61 + x_85 + x_88 + x_104 + x_108 + x_114 + x_128 + x_144 + x_149 + x_157 + x_162 + x_168 + x_171 + x_172 + x_174 + x_184 + x_186 + x_193 + x_196 + x_197 >= 1
  cover_8: x_82 + x_1 + x_5 + x_31 + x_35 + x_46 + x_48 + x_51 + x_63 + x_84 + x_101 + x_102 + x_110 + x_112 + x_119 + x_122 + x_130 + x_133 + x_135 + x_165 + x_167 + x_171 + x_175 + x_179 + x_182 + x_189 + x_197 >= 1
  cover_9: x_82 + x_3 + x_9 + x_13 + x_27 + x_29 + x_31 + x_37 + x_52 + x_63 + x_74 + x_75 + x_108 + x_133 + x_139 + x_143 + x_163 + x_164 + x_170 + x_171 + x_177 + x_180 + x_187 + x_194 >= 1
  cover_10: x_19 + x_32 + x_35 + x_37 + x_39 + x_58 + x_61 + x_68 + x_81 + x_92 + x_111 + x_120 + x_136 + x_138 + x_140 + x_144 + x_145 + x_152 + x_154 + x_166 + x_172 + x_178 + x_187 + x_192 + x_197 + x_200 >= 1
  cover_11: x_3 + x_17 + x_18 + x_22 + x_29 + x_34 + x_39 + x_41 + x_56 + x_64 + x_74 + x_115 + x_116 + x_128 + x_150 + x_153 + x_156 + x_165 >= 1
  cover_12: x_14 + x_22 + x_39 + x_46 + x_53 + x_76 + x_92 + x_95 + x_105 + x_109 + x_126 + x_127 + x_153 + x_164 + x_179 + x_181 + x_199 + x_200 >= 1
  cover_13: x_4 + x_10 + x_13 + x_19 + x_48 + x_52 + x_58 + x_60 + x_80 + x_86 + x_96 + x_103 + x_131 + x_138 + x_141 + x_157 + x_164 + x_175 >= 1
  cover_14: x_4 + x_9 + x_17 + x_20 + x_26 + x_29 + x_32 + x_37 + x_56 + x_69 + x_70 + x_76 + x_95 + x_103 + x_114 + x_132 + x_173 + x_175 + x_177 + x_178 + x_190 + x_197 >= 1
  cover_15: x_5 + x_6 + x_42 + x_43 + x_58 + x_61 + x_68 + x_73 + x_78 + x_101 + x_105 + x_117 + x_118 + x_119 + x_124 + x_135 + x_142 + x_148 + x_154 + x_160 + x_166 + x_168 + x_169 + x_178 + x_184 + x_190 + x_197 + x_198 >= 1
  cover_16: x_1 + x_5 + x_8 + x_10 + x_13 + x_14 + x_23 + x_24 + x_27 + x_29 + x_37 + x_39 + x_59 + x_61 + x_63 + x_65 + x_80 + x_93 + x_94 + x_96 + x_97 + x_99 + x_112 + x_115 + x_133 + x_141 + x_152 + x_154 + x_157 + x_171 + x_173 + x_181 >= 1
  cover_17: x_3 + x_18 + x_26 + x_27 + x_29 + x_31 + x_32 + x_33 + x_34 + x_46 + x_76 + x_77 + x_83 + x_95 + x_101 + x_115 + x_118 + x_124 + x_130 + x_145 + x_155 + x_156 + x_161 + x_165 + x_167 + x_179 + x_181 >= 1
  cover_18: x_14 + x_32 + x_33 + x_41 + x_44 + x_65 + x_66 + x_67 + x_73 + x_77 + x_92 + x_93 + x_95 + x_101 + x_107 + x_120 + x_123 + x_127 + x_132 + x_137 + x_139 + x_165 + x_173 + x_175 + x_178 + x_187 + x_199 >= 1
  cover_19: x_18 + x_29 + x_32 + x_52 + x_54 + x_66 + x_98 + x_104 + x_105 + x_117 + x_133 + x_139 + x_148 + x_151 + x_155 + x_158 + x_165 + x_188 + x_196 >= 1
  cover_20: x_1 + x_4 + x_27 + x_30 + x_37 + x_43 + x_51 + x_53 + x_54 + x_58 + x_72 + x_85 + x_88 + x_99 + x_101 + x_105 + x_113 + x_114 + x_121 + x_122 + x_134 + x_156 + x_169 + x_170 + x_186 + x_196 + x_199 >= 1
  cover_21: x_1 + x_20 + x_26 + x_28 + x_52 + x_55 + x_63 + x_67 + x_76 + x_93 + x_95 + x_102 + x_124 + x_128 + x_130 + x_141 + x_142 + x_147 + x_151 + x_164 + x_169 + x_181 + x_187 + x_188 + x_191 >= 1
  cover_22: x_8 + x_32 + x_33 + x_40 + x_44 + x_50 + x_57 + x_67 + x_70 + x_74 + x_76 + x_90 + x_94 + x_95 + x_100 + x_109 + x_128 + x_139 + x_141 + x_145 + x_146 + x_165 + x_176 + x_178 + x_190 + x_194 + x_199 >= 1
  cover_23: x_10 + x_29 + x_37 + x_38 + x_43 + x_45 + x_47 + x_72 + x_78 + x_89 + x_95 + x_100 + x_127 + x_141 + x_151 + x_156 + x_160 + x_174 + x_195 + x_196 + x_197 >= 1
  cover_24: x_1 + x_29 + x_36 + x_37 + x_50 + x_83 + x_90 + x_91 + x_105 + x_131 + x_163 + x_165 + x_166 + x_167 + x_168 + x_171 + x_173 + x_174 + x_192 + x_197 >= 1
  cover_25: x_18 + x_41 + x_48 + x_60 + x_68 + x_70 + x_72 + x_76 + x_86 + x_94 + x_113 + x_138 + x_141 + x_142 + x_157 + x_171 + x_188 >= 1
  cover_26: x_4 + x_12 + x_23 + x_27 + x_44 + x_45 + x_52 + x_53 + x_74 + x_75 + x_86 + x_99 + x_110 + x_129 + x_130 + x_145 + x_158 + x_166 + x_186 + x_190 + x_200 >= 1
  cover_27: x_10 + x_11 + x_17 + x_39 + x_40 + x_52 + x_60 + x_69 + x_70 + x_72 + x_77 + x_90 + x_112 + x_128 + x_131 + x_134 + x_137 + x_139 + x_142 + x_152 + x_164 + x_169 + x_172 + x_182 + x_190 + x_195 >= 1
  cover_28: x_10 + x_33 + x_35 + x_37 + x_47 + x_48 + x_49 + x_50 + x_55 + x_61 + x_64 + x_73 + x_75 + x_90 + x_91 + x_92 + x_93 + x_100 + x_119 + x_127 + x_149 + x_152 + x_156 + x_186 + x_188 + x_190 + x_191 + x_193 + x_198 >= 1
  cover_29: x_5 + x_13 + x_14 + x_56 + x_64 + x_66 + x_97 + x_109 + x_113 + x_117 + x_122 + x_123 + x_131 + x_133 + x_140 + x_144 + x_150 + x_156 + x_163 + x_173 + x_183 + x_184 + x_190 >= 1
  cover_30: x_11 + x_14 + x_18 + x_28 + x_43 + x_60 + x_62 + x_63 + x_70 + x_74 + x_76 + x_83 + x_93 + x_94 + x_101 + x_118 + x_122 + x_129 + x_131 + x_135 + x_138 + x_141 + x_144 + x_154 + x_155 + x_156 + x_167 + x_169 + x_171 + x_175 + x_186 + x_188 + x_190 >= 1
  cover_31: x_82 + x_3 + x_10 + x_17 + x_42 + x_56 + x_64 + x_72 + x_77 + x_97 + x_100 + x_103 + x_109 + x_110 + x_117 + x_126 + x_127 + x_137 + x_141 + x_142 + x_145 + x_157 + x_165 + x_168 + x_183 + x_186 + x_192 + x_197 >= 1
  cover_32: x_1 + x_2 + x_9 + x_17 + x_19 + x_60 + x_65 + x_73 + x_90 + x_95 + x_97 + x_108 + x_110 + x_123 + x_127 + x_128 + x_131 + x_133 + x_136 + x_140 + x_143 + x_147 + x_154 + x_159 + x_172 + x_186 >= 1
  cover_33: x_8 + x_22 + x_29 + x_32 + x_45 + x_48 + x_51 + x_56 + x_57 + x_64 + x_90 + x_123 + x_130 + x_137 + x_139 + x_143 + x_165 + x_184 + x_188 >= 1
  cover_34: x_3 + x_5 + x_22 + x_26 + x_30 + x_49 + x_62 + x_63 + x_65 + x_92 + x_96 + x_100 + x_104 + x_113 + x_126 + x_131 + x_144 + x_152 + x_165 + x_182 + x_188 >= 1
  cover_35: x_4 + x_9 + x_13 + x_15 + x_20 + x_30 + x_35 + x_45 + x_49 + x_67 + x_70 + x_72 + x_77 + x_92 + x_102 + x_106 + x_119 + x_123 + x_141 + x_146 + x_147 + x_167 + x_171 + x_174 + x_179 >= 1
  cover_36: x_3 + x_6 + x_14 + x_19 + x_30 + x_35 + x_38 + x_52 + x_53 + x_63 + x_64 + x_96 + x_97 + x_100 + x_107 + x_112 + x_116 + x_129 + x_134 + x_138 + x_141 + x_166 + x_194 + x_197 + x_198 >= 1
  cover_37: x_82 + x_2 + x_9 + x_24 + x_26 + x_28 + x_48 + x_53 + x_60 + x_71 + x_75 + x_86 + x_89 + x_94 + x_111 + x_114 + x_121 + x_124 + x_126 + x_152 + x_158 + x_159 + x_177 + x_196 + x_198 + x_200 >= 1
  cover_38: x_6 + x_20 + x_21 + x_24 + x_26 + x_36 + x_46 + x_55 + x_75 + x_85 + x_87 + x_93 + x_104 + x_127 + x_140 + x_154 + x_156 + x_163 + x_172 + x_178 + x_181 + x_184 + x_194 >= 1
  cover_39: x_1 + x_3 + x_22 + x_32 + x_47 + x_48 + x_55 + x_63 + x_84 + x_95 + x_104 + x_112 + x_117 + x_121 + x_123 + x_124 + x_133 + x_159 + x_160 + x_178 + x_187 + x_188 + x_196 + x_199 >= 1
  cover_40: x_25 + x_28 + x_30 + x_39 + x_53 + x_57 + x_60 + x_64 + x_74 + x_81 + x_92 + x_94 + x_114 + x_131 + x_145 + x_147 + x_153 + x_154 + x_161 + x_168 + x_169 + x_184 + x_187 + x_198 >= 1
  cover_41: x_7 + x_32 + x_33 + x_34 + x_57 + x_60 + x_65 + x_87 + x_91 + x_108 + x_114 + x_127 + x_131 + x_133 + x_147 + x_148 + x_156 + x_160 + x_162 + x_168 + x_169 >= 1
  cover_42: x_11 + x_15 + x_27 + x_30 + x_45 + x_55 + x_61 + x_75 + x_79 + x_90 + x_92 + x_97 + x_119 + x_126 + x_136 + x_145 + x_162 + x_169 + x_172 + x_174 + x_175 + x_186 + x_189 >= 1
  cover_43: x_82 + x_3 + x_4 + x_9 + x_10 + x_19 + x_26 + x_27 + x_30 + x_31 + x_40 + x_50 + x_51 + x_56 + x_57 + x_63 + x_74 + x_75 + x_90 + x_94 + x_99 + x_115 + x_128 + x_129 + x_130 + x_140 + x_142 + x_155 + x_158 + x_175 + x_185 + x_191 + x_195 + x_197 + x_199 + x_200 >= 1
  cover_44: x_11 + x_23 + x_45 + x_53 + x_56 + x_58 + x_72 + x_74 + x_86 + x_88 + x_118 + x_125 + x_146 + x_148 + x_152 + x_154 + x_159 + x_161 + x_166 + x_167 + x_168 + x_174 + x_192 >= 1
  cover_45: x_4 + x_11 + x_19 + x_41 + x_52 + x_61 + x_62 + x_64 + x_68 + x_83 + x_87 + x_88 + x_97 + x_99 + x_101 + x_108 + x_117 + x_118 + x_122 + x_133 + x_142 + x_150 + x_158 + x_173 + x_178 + x_189 + x_190 + x_199 >= 1
  cover_46: x_7 + x_10 + x_19 + x_30 + x_32 + x_35 + x_49 + x_66 + x_69 + x_76 + x_84 + x_86 + x_92 + x_93 + x_106 + x_117 + x_137 + x_147 + x_188 + x_194 + x_198 + x_199 >= 1
  cover_47: x_2 + x_4 + x_6 + x_11 + x_12 + x_19 + x_37 + x_51 + x_64 + x_70 + x_93 + x_104 + x_122 + x_139 + x_161 + x_166 + x_169 + x_171 + x_172 + x_185 + x_188 + x_190 + x_196 >= 1
  cover_48: x_13 + x_18 + x_28 + x_34 + x_39 + x_40 + x_46 + x_51 + x_53 + x_63 + x_84 + x_102 + x_103 + x_110 + x_114 + x_121 + x_124 + x_139 + x_148 + x_164 + x_172 + x_173 + x_182 >= 1
  cover_49: x_3 + x_6 + x_16 + x_20 + x_28 + x_31 + x_65 + x_71 + x_77 + x_94 + x_100 + x_102 + x_125 + x_137 + x_149 + x_157 + x_158 + x_160 + x_161 + x_167 + x_177 + x_194 >= 1
  cover_50: x_3 + x_5 + x_22 + x_26 + x_35 + x_38 + x_44 + x_51 + x_56 + x_75 + x_79 + x_83 + x_88 + x_97 + x_109 + x_113 + x_128 + x_140 + x_144 + x_155 + x_160 + x_178 + x_183 + x_184 + x_187 + x_199 >= 1
Binary
  x_1 x_2 x_3 x_4 x_5 x_6 x_7 x_8 x_9 x_10
  x_11 x_12 x_13 x_14 x_15 x_16 x_17 x_18 x_19 x_20
  x_21 x_22 x_23 x_24 x_25 x_26 x_27 x_28 x_29 x_30
  x_31 x_32 x_33 x_34 x_35 x_36 x_37 x_38 x_39 x_40
  x_41 x_42 x_43 x_44 x_45 x_46 x_47 x_48 x_49 x_50
  x_51 x_52 x_53 x_54 x_55 x_56 x_57 x_58 x_59 x_60
  x_61 x_62 x_63 x_64 x_65 x_66 x_67 x_68 x_69 x_70
  x_71 x_72 x_73 x_74 x_75 x_76 x_77 x_78 x_79 x_80
  x_81 x_82 x_83 x_84 x_85 x_86 x_87 x_88 x_89 x_90
  x_91 x_92 x_93 x_94 x_95 x_96 x_97 x_98 x_99 x_100
  x_101 x_102 x_103 x_104 x_105 x_106 x_107 x_108 x_109 x_110
  x_111 x_112 x_113 x_114 x_115 x_116 x_117 x_118 x_119 x_120
  x_121 x_122 x_123 x_124 x_125 x_126 x_127 x_128 x_129 x_130
  x_131 x_132 x_133 x_134 x_135 x_136 x_137 x_138 x_139 x_140
  x_141 x_142 x_143 x_144 x_145 x_146 x_147 x_148 x_149 x_150
  x_151 x_152 x_153 x_154 x_155 x_156 x_157 x_158 x_159 x_160
  x_161 x_162 x_163 x_164 x_165 x_166 x_167 x_168 x_169 x_170
  x_171 x_172 x_173 x_174 x_175 x_176 x_177 x_178 x_179 x_180
  x_181 x_182 x_183 x_184 x_185 x_186 x_187 x_188 x_189 x_190
  x_191 x_192 x_193 x_194 x_195 x_196 x_197 x_198 x_199 x_200
End